problems/VanDerWaerdenNumbers/VanDerWaerden-models/noch/O2/lingeling/model_1-k3l4n77-solution000001.solution
language Essence 1.3

letting p be
        partition({1, 2, 7, 13, 14, 17, 18, 21, 23, 30, 31, 32, 34, 37, 39, 42, 49, 57, 60, 61, 62, 65, 66, 70, 71, 72},
                  {3, 4, 10, 11, 12, 15, 22, 27, 28, 35, 36, 38, 40, 46, 47, 52, 53, 54, 63, 67, 68, 74, 75, 77},
                  {5, 6, 8, 9, 16, 19, 20, 24, 25, 26, 29, 33, 41, 43, 44, 45, 48, 50, 51, 55, 56, 58, 59, 64, 69, 73,
                   76})
